File : Instances/p66
Use 145 s

32688

0 0 1 0 0 0 0 1 0 0 0 0 1 0 0 0 0 0 0 1 1 0 0 1 1 0 0 0 1 0 
7 19 2 24 2 12 2 28 24 28 19 28 23 23 28 7 23 20 24 24 7 24 23 24 23 7 24 28 19 2 19 19 19 24 28 12 20 20 24 24 7 20 12 19 20 19 20 2 19 28 24 24 2 24 20 12 7 20 7 7 19 2 7 20 20 12 23 28 28 12 7 12 19 20 23 23 20 23 20 24 23 2 20 7 12 23 19 2 24 7 28 19 7 7 2 23 28 12 2 28 28 2 12 7 19 24 19 24 24 20 19 19 7 12 12 20 28 7 28 20 19 12 28 19 19 24 2 12 19 28 28 24 12 20 23 20 23 20 28 20 12 24 12 12 7 2 24 2 24 7 24 28 23 28 20 28 2 2 20 20 23 24 23 24 23 28 23 19 23 2 23 20 19 20 19 2 24 20 19 20 2 2 2 19 12 20 28 23 28 2 2 2 12 19 7 12 7 2 23 19 
